p tw 114 4561 59 
1 66 
1 73 
1 80 
1 87 
1 94 
1 101 
1 108 
2 60 
2 67 
2 74 
2 81 
2 88 
2 95 
2 102 
2 108 
3 61 
3 68 
3 75 
3 82 
3 89 
3 96 
3 103 
3 108 
4 62 
4 69 
4 76 
4 83 
4 90 
4 97 
4 104 
4 108 
5 63 
5 70 
5 77 
5 84 
5 91 
5 98 
5 105 
5 108 
6 64 
6 71 
6 78 
6 85 
6 92 
6 99 
6 106 
6 108 
7 65 
7 72 
7 79 
7 86 
7 93 
7 100 
7 107 
7 108 
8 59 
8 70 
8 78 
8 86 
8 88 
8 96 
8 104 
8 109 
9 60 
9 66 
9 79 
9 84 
9 90 
9 99 
9 103 
9 109 
10 61 
10 69 
10 73 
10 81 
10 92 
10 98 
10 107 
10 109 
11 62 
11 67 
11 77 
11 80 
11 89 
11 100 
11 106 
11 109 
12 63 
12 72 
12 75 
12 85 
12 87 
12 97 
12 102 
12 109 
13 64 
13 68 
13 74 
13 83 
13 93 
13 94 
13 105 
13 109 
14 65 
14 71 
14 76 
14 82 
14 91 
14 95 
14 101 
14 109 
15 59 
15 71 
15 79 
15 81 
15 89 
15 97 
15 105 
15 110 
16 60 
16 72 
16 77 
16 83 
16 92 
16 96 
16 101 
16 110 
17 61 
17 66 
17 74 
17 85 
17 91 
17 100 
17 104 
17 110 
18 62 
18 70 
18 73 
18 82 
18 93 
18 99 
18 102 
18 110 
19 63 
19 68 
19 78 
19 80 
19 90 
19 95 
19 107 
19 110 
20 64 
20 67 
20 76 
20 86 
20 87 
20 98 
20 103 
20 110 
21 65 
21 69 
21 75 
21 84 
21 88 
21 94 
21 106 
21 110 
22 59 
22 72 
22 74 
22 82 
22 90 
22 98 
22 106 
22 111 
23 60 
23 70 
23 76 
23 85 
23 89 
23 94 
23 107 
23 111 
24 61 
24 67 
24 78 
24 84 
24 93 
24 97 
24 101 
24 111 
25 62 
25 66 
25 75 
25 86 
25 92 
25 95 
25 105 
25 111 
26 63 
26 71 
26 73 
26 83 
26 88 
26 100 
26 103 
26 111 
27 64 
27 69 
27 79 
27 80 
27 91 
27 96 
27 102 
27 111 
28 65 
28 68 
28 77 
28 81 
28 87 
28 99 
28 104 
28 111 
29 59 
29 67 
29 75 
29 83 
29 91 
29 99 
29 107 
29 112 
30 60 
30 69 
30 78 
30 82 
30 87 
30 100 
30 105 
30 112 
31 61 
31 71 
31 77 
31 86 
31 90 
31 94 
31 102 
31 112 
32 62 
32 68 
32 79 
32 85 
32 88 
32 98 
32 101 
32 112 
33 63 
33 66 
33 76 
33 81 
33 93 
33 96 
33 106 
33 112 
34 64 
34 72 
34 73 
34 84 
34 89 
34 95 
34 104 
34 112 
35 65 
35 70 
35 74 
35 80 
35 92 
35 97 
35 103 
35 112 
36 59 
36 68 
36 76 
36 84 
36 92 
36 100 
36 102 
36 113 
37 60 
37 71 
37 75 
37 80 
37 93 
37 98 
37 104 
37 113 
38 61 
38 70 
38 79 
38 83 
38 87 
38 95 
38 106 
38 113 
39 62 
39 72 
39 78 
39 81 
39 91 
39 94 
39 103 
39 113 
40 63 
40 69 
40 74 
40 86 
40 89 
40 99 
40 101 
40 113 
41 64 
41 66 
41 77 
41 82 
41 88 
41 97 
41 107 
41 113 
42 65 
42 67 
42 73 
42 85 
42 90 
42 96 
42 105 
42 113 
43 59 
43 69 
43 77 
43 85 
43 93 
43 95 
43 103 
43 114 
44 60 
44 68 
44 73 
44 86 
44 91 
44 97 
44 106 
44 114 
45 61 
45 72 
45 76 
45 80 
45 88 
45 99 
45 105 
45 114 
46 62 
46 71 
46 74 
46 84 
46 87 
46 96 
46 107 
46 114 
47 63 
47 67 
47 79 
47 82 
47 92 
47 94 
47 104 
47 114 
48 64 
48 70 
48 75 
48 81 
48 90 
48 100 
48 101 
48 114 
49 65 
49 66 
49 78 
49 83 
49 89 
49 98 
49 102 
49 114 
50 58 
50 59 
50 60 
50 61 
50 62 
50 63 
50 64 
50 65 
51 58 
51 66 
51 67 
51 68 
51 69 
51 70 
51 71 
51 72 
52 58 
52 73 
52 74 
52 75 
52 76 
52 77 
52 78 
52 79 
53 58 
53 80 
53 81 
53 82 
53 83 
53 84 
53 85 
53 86 
54 58 
54 87 
54 88 
54 89 
54 90 
54 91 
54 92 
54 93 
55 58 
55 94 
55 95 
55 96 
55 97 
55 98 
55 99 
55 100 
56 58 
56 101 
56 102 
56 103 
56 104 
56 105 
56 106 
56 107 
57 58 
57 108 
57 109 
57 110 
57 111 
57 112 
57 113 
57 114 
